c WARNING: for repeatability, setting FPU to use double precision
d VARIABLES            26433        
d CONSTRAINTS          87066        
c ============================[ Problem Statistics ]=============================
c |                                                                             |
c |  Number of variables:         26433                                         |
c |  Number of clauses:           87066                                         |
c |  Parse time:                   0.01 s                                       |
c |                                                                             |
c ============================[ Search Statistics ]==============================
c | Conflicts |          ORIGINAL         |          LEARNT          | Progress |
c |           |    Vars  Clauses Literals |    Limit  Clauses Lit/Cl |          |
c ===============================================================================
c |       100 |   16405    60396   151994 |    22145       99     47 | 37.937 % |
c |       250 |   16405    60396   151994 |    24359      249     49 | 37.937 % |
c |       475 |   16405    60390   151979 |    26795      474     60 | 37.937 % |
c |       812 |   16405    60390   151979 |    29475      811     63 | 37.937 % |
c |      1318 |   16405    60390   151979 |    32422     1317     93 | 37.937 % |
c |      2077 |   16405    60390   151979 |    35665     2076     89 | 37.937 % |
c |      3216 |   16400    60372   151935 |    39231     3213     87 | 37.956 % |
c |      4924 |   16400    60372   151935 |    43154     4921     76 | 37.956 % |
c |      7486 |   16400    60372   151935 |    47470     7483     73 | 37.956 % |
c |     11330 |   16395    60354   151891 |    52217    11326     71 | 37.975 % |
c |     17096 |   16395    60354   151891 |    57438    17092     65 | 37.975 % |
c |     25745 |   16392    60343   151864 |    63182    25740     59 | 37.987 % |
c |     38719 |   16392    60343   151864 |    69501    38714     55 | 37.987 % |
c |     58180 |   16392    60343   151864 |    76451    58175     49 | 37.987 % |
c |     87372 |   16392    60343   151864 |    84096    87367     46 | 37.987 % |
c |    131161 |   16392    60343   151864 |    92505    52006     35 | 37.987 % |
c ===============================================================================
c restarts              : 397
c conflicts             : 150117         (8695 /sec)
c decisions             : 245994         (0.00 % random) (14248 /sec)
c propagations          : 91922074       (5324162 /sec)
c conflict literals     : 6223097        (52.99 % deleted)
d RESTARTS             397
d FAILURES             150117       
d NODES                245994       
d BACKTRACKS           245994       
d PROPAGATIONS         91922074     
d NOGOODSIZE           41.45 
d MEMORY               36.00 
d TIME                 17.2651 

s UNSATISFIABLE
